p cnf 299 1508
1 2 3 4 5 6 7 8 9 10 11 12  0
-13 1 0
13 -1 0
-14 13 2 0
14 -13 0
14 -2 0
-15 14 3 0
15 -14 0
15 -3 0
-16 15 4 0
16 -15 0
16 -4 0
-17 16 5 0
17 -16 0
17 -5 0
-18 17 6 0
18 -17 0
18 -6 0
-19 18 7 0
19 -18 0
19 -7 0
-20 19 8 0
20 -19 0
20 -8 0
-21 20 9 0
21 -20 0
21 -9 0
-22 21 10 0
22 -21 0
22 -10 0
-23 22 11 0
23 -22 0
23 -11 0
-13 -2 0
-14 -3 0
-15 -4 0
-16 -5 0
-17 -6 0
-18 -7 0
-19 -8 0
-20 -9 0
-21 -10 0
-22 -11 0
-23 -12 0
24 25 26 27 28 29 30 31 32 33 34 35  0
-36 24 0
36 -24 0
-37 36 25 0
37 -36 0
37 -25 0
-38 37 26 0
38 -37 0
38 -26 0
-39 38 27 0
39 -38 0
39 -27 0
-40 39 28 0
40 -39 0
40 -28 0
-41 40 29 0
41 -40 0
41 -29 0
-42 41 30 0
42 -41 0
42 -30 0
-43 42 31 0
43 -42 0
43 -31 0
-44 43 32 0
44 -43 0
44 -32 0
-45 44 33 0
45 -44 0
45 -33 0
-46 45 34 0
46 -45 0
46 -34 0
-36 -25 0
-37 -26 0
-38 -27 0
-39 -28 0
-40 -29 0
-41 -30 0
-42 -31 0
-43 -32 0
-44 -33 0
-45 -34 0
-46 -35 0
47 48 49 50 51 52 53 54 55 56 57 58  0
-59 47 0
59 -47 0
-60 59 48 0
60 -59 0
60 -48 0
-61 60 49 0
61 -60 0
61 -49 0
-62 61 50 0
62 -61 0
62 -50 0
-63 62 51 0
63 -62 0
63 -51 0
-64 63 52 0
64 -63 0
64 -52 0
-65 64 53 0
65 -64 0
65 -53 0
-66 65 54 0
66 -65 0
66 -54 0
-67 66 55 0
67 -66 0
67 -55 0
-68 67 56 0
68 -67 0
68 -56 0
-69 68 57 0
69 -68 0
69 -57 0
-59 -48 0
-60 -49 0
-61 -50 0
-62 -51 0
-63 -52 0
-64 -53 0
-65 -54 0
-66 -55 0
-67 -56 0
-68 -57 0
-69 -58 0
70 71 72 73 74 75 76 77 78 79 80 81  0
-82 70 0
82 -70 0
-83 82 71 0
83 -82 0
83 -71 0
-84 83 72 0
84 -83 0
84 -72 0
-85 84 73 0
85 -84 0
85 -73 0
-86 85 74 0
86 -85 0
86 -74 0
-87 86 75 0
87 -86 0
87 -75 0
-88 87 76 0
88 -87 0
88 -76 0
-89 88 77 0
89 -88 0
89 -77 0
-90 89 78 0
90 -89 0
90 -78 0
-91 90 79 0
91 -90 0
91 -79 0
-92 91 80 0
92 -91 0
92 -80 0
-82 -71 0
-83 -72 0
-84 -73 0
-85 -74 0
-86 -75 0
-87 -76 0
-88 -77 0
-89 -78 0
-90 -79 0
-91 -80 0
-92 -81 0
93 94 95 96 97 98 99 100 101 102 103 104  0
-105 93 0
105 -93 0
-106 105 94 0
106 -105 0
106 -94 0
-107 106 95 0
107 -106 0
107 -95 0
-108 107 96 0
108 -107 0
108 -96 0
-109 108 97 0
109 -108 0
109 -97 0
-110 109 98 0
110 -109 0
110 -98 0
-111 110 99 0
111 -110 0
111 -99 0
-112 111 100 0
112 -111 0
112 -100 0
-113 112 101 0
113 -112 0
113 -101 0
-114 113 102 0
114 -113 0
114 -102 0
-115 114 103 0
115 -114 0
115 -103 0
-105 -94 0
-106 -95 0
-107 -96 0
-108 -97 0
-109 -98 0
-110 -99 0
-111 -100 0
-112 -101 0
-113 -102 0
-114 -103 0
-115 -104 0
116 117 118 119 120 121 122 123 124 125 126 127  0
-128 116 0
128 -116 0
-129 128 117 0
129 -128 0
129 -117 0
-130 129 118 0
130 -129 0
130 -118 0
-131 130 119 0
131 -130 0
131 -119 0
-132 131 120 0
132 -131 0
132 -120 0
-133 132 121 0
133 -132 0
133 -121 0
-134 133 122 0
134 -133 0
134 -122 0
-135 134 123 0
135 -134 0
135 -123 0
-136 135 124 0
136 -135 0
136 -124 0
-137 136 125 0
137 -136 0
137 -125 0
-138 137 126 0
138 -137 0
138 -126 0
-128 -117 0
-129 -118 0
-130 -119 0
-131 -120 0
-132 -121 0
-133 -122 0
-134 -123 0
-135 -124 0
-136 -125 0
-137 -126 0
-138 -127 0
139 140 141 142 143 144 145 146 147 148 149 150  0
-151 139 0
151 -139 0
-152 151 140 0
152 -151 0
152 -140 0
-153 152 141 0
153 -152 0
153 -141 0
-154 153 142 0
154 -153 0
154 -142 0
-155 154 143 0
155 -154 0
155 -143 0
-156 155 144 0
156 -155 0
156 -144 0
-157 156 145 0
157 -156 0
157 -145 0
-158 157 146 0
158 -157 0
158 -146 0
-159 158 147 0
159 -158 0
159 -147 0
-160 159 148 0
160 -159 0
160 -148 0
-161 160 149 0
161 -160 0
161 -149 0
-151 -140 0
-152 -141 0
-153 -142 0
-154 -143 0
-155 -144 0
-156 -145 0
-157 -146 0
-158 -147 0
-159 -148 0
-160 -149 0
-161 -150 0
162 163 164 165 166 167 168 169 170 171 172 173  0
-174 162 0
174 -162 0
-175 174 163 0
175 -174 0
175 -163 0
-176 175 164 0
176 -175 0
176 -164 0
-177 176 165 0
177 -176 0
177 -165 0
-178 177 166 0
178 -177 0
178 -166 0
-179 178 167 0
179 -178 0
179 -167 0
-180 179 168 0
180 -179 0
180 -168 0
-181 180 169 0
181 -180 0
181 -169 0
-182 181 170 0
182 -181 0
182 -170 0
-183 182 171 0
183 -182 0
183 -171 0
-184 183 172 0
184 -183 0
184 -172 0
-174 -163 0
-175 -164 0
-176 -165 0
-177 -166 0
-178 -167 0
-179 -168 0
-180 -169 0
-181 -170 0
-182 -171 0
-183 -172 0
-184 -173 0
185 186 187 188 189 190 191 192 193 194 195 196  0
-197 185 0
197 -185 0
-198 197 186 0
198 -197 0
198 -186 0
-199 198 187 0
199 -198 0
199 -187 0
-200 199 188 0
200 -199 0
200 -188 0
-201 200 189 0
201 -200 0
201 -189 0
-202 201 190 0
202 -201 0
202 -190 0
-203 202 191 0
203 -202 0
203 -191 0
-204 203 192 0
204 -203 0
204 -192 0
-205 204 193 0
205 -204 0
205 -193 0
-206 205 194 0
206 -205 0
206 -194 0
-207 206 195 0
207 -206 0
207 -195 0
-197 -186 0
-198 -187 0
-199 -188 0
-200 -189 0
-201 -190 0
-202 -191 0
-203 -192 0
-204 -193 0
-205 -194 0
-206 -195 0
-207 -196 0
208 209 210 211 212 213 214 215 216 217 218 219  0
-220 208 0
220 -208 0
-221 220 209 0
221 -220 0
221 -209 0
-222 221 210 0
222 -221 0
222 -210 0
-223 222 211 0
223 -222 0
223 -211 0
-224 223 212 0
224 -223 0
224 -212 0
-225 224 213 0
225 -224 0
225 -213 0
-226 225 214 0
226 -225 0
226 -214 0
-227 226 215 0
227 -226 0
227 -215 0
-228 227 216 0
228 -227 0
228 -216 0
-229 228 217 0
229 -228 0
229 -217 0
-230 229 218 0
230 -229 0
230 -218 0
-220 -209 0
-221 -210 0
-222 -211 0
-223 -212 0
-224 -213 0
-225 -214 0
-226 -215 0
-227 -216 0
-228 -217 0
-229 -218 0
-230 -219 0
231 232 233 234 235 236 237 238 239 240 241 242  0
-243 231 0
243 -231 0
-244 243 232 0
244 -243 0
244 -232 0
-245 244 233 0
245 -244 0
245 -233 0
-246 245 234 0
246 -245 0
246 -234 0
-247 246 235 0
247 -246 0
247 -235 0
-248 247 236 0
248 -247 0
248 -236 0
-249 248 237 0
249 -248 0
249 -237 0
-250 249 238 0
250 -249 0
250 -238 0
-251 250 239 0
251 -250 0
251 -239 0
-252 251 240 0
252 -251 0
252 -240 0
-253 252 241 0
253 -252 0
253 -241 0
-243 -232 0
-244 -233 0
-245 -234 0
-246 -235 0
-247 -236 0
-248 -237 0
-249 -238 0
-250 -239 0
-251 -240 0
-252 -241 0
-253 -242 0
254 255 256 257 258 259 260 261 262 263 264 265  0
-266 254 0
266 -254 0
-267 266 255 0
267 -266 0
267 -255 0
-268 267 256 0
268 -267 0
268 -256 0
-269 268 257 0
269 -268 0
269 -257 0
-270 269 258 0
270 -269 0
270 -258 0
-271 270 259 0
271 -270 0
271 -259 0
-272 271 260 0
272 -271 0
272 -260 0
-273 272 261 0
273 -272 0
273 -261 0
-274 273 262 0
274 -273 0
274 -262 0
-275 274 263 0
275 -274 0
275 -263 0
-276 275 264 0
276 -275 0
276 -264 0
-266 -255 0
-267 -256 0
-268 -257 0
-269 -258 0
-270 -259 0
-271 -260 0
-272 -261 0
-273 -262 0
-274 -263 0
-275 -264 0
-276 -265 0
277 278 279 280 281 282 283 284 285 286 287 288  0
-289 277 0
289 -277 0
-290 289 278 0
290 -289 0
290 -278 0
-291 290 279 0
291 -290 0
291 -279 0
-292 291 280 0
292 -291 0
292 -280 0
-293 292 281 0
293 -292 0
293 -281 0
-294 293 282 0
294 -293 0
294 -282 0
-295 294 283 0
295 -294 0
295 -283 0
-296 295 284 0
296 -295 0
296 -284 0
-297 296 285 0
297 -296 0
297 -285 0
-298 297 286 0
298 -297 0
298 -286 0
-299 298 287 0
299 -298 0
299 -287 0
-289 -278 0
-290 -279 0
-291 -280 0
-292 -281 0
-293 -282 0
-294 -283 0
-295 -284 0
-296 -285 0
-297 -286 0
-298 -287 0
-299 -288 0
-24 -1 0
-47 -1 0
-47 -24 0
-70 -1 0
-70 -24 0
-70 -47 0
-93 -1 0
-93 -24 0
-93 -47 0
-93 -70 0
-116 -1 0
-116 -24 0
-116 -47 0
-116 -70 0
-116 -93 0
-139 -1 0
-139 -24 0
-139 -47 0
-139 -70 0
-139 -93 0
-139 -116 0
-162 -1 0
-162 -24 0
-162 -47 0
-162 -70 0
-162 -93 0
-162 -116 0
-162 -139 0
-185 -1 0
-185 -24 0
-185 -47 0
-185 -70 0
-185 -93 0
-185 -116 0
-185 -139 0
-185 -162 0
-208 -1 0
-208 -24 0
-208 -47 0
-208 -70 0
-208 -93 0
-208 -116 0
-208 -139 0
-208 -162 0
-208 -185 0
-231 -1 0
-231 -24 0
-231 -47 0
-231 -70 0
-231 -93 0
-231 -116 0
-231 -139 0
-231 -162 0
-231 -185 0
-231 -208 0
-254 -1 0
-254 -24 0
-254 -47 0
-254 -70 0
-254 -93 0
-254 -116 0
-254 -139 0
-254 -162 0
-254 -185 0
-254 -208 0
-254 -231 0
-277 -1 0
-277 -24 0
-277 -47 0
-277 -70 0
-277 -93 0
-277 -116 0
-277 -139 0
-277 -162 0
-277 -185 0
-277 -208 0
-277 -231 0
-277 -254 0
-25 -2 0
-48 -2 0
-48 -25 0
-71 -2 0
-71 -25 0
-71 -48 0
-94 -2 0
-94 -25 0
-94 -48 0
-94 -71 0
-117 -2 0
-117 -25 0
-117 -48 0
-117 -71 0
-117 -94 0
-140 -2 0
-140 -25 0
-140 -48 0
-140 -71 0
-140 -94 0
-140 -117 0
-163 -2 0
-163 -25 0
-163 -48 0
-163 -71 0
-163 -94 0
-163 -117 0
-163 -140 0
-186 -2 0
-186 -25 0
-186 -48 0
-186 -71 0
-186 -94 0
-186 -117 0
-186 -140 0
-186 -163 0
-209 -2 0
-209 -25 0
-209 -48 0
-209 -71 0
-209 -94 0
-209 -117 0
-209 -140 0
-209 -163 0
-209 -186 0
-232 -2 0
-232 -25 0
-232 -48 0
-232 -71 0
-232 -94 0
-232 -117 0
-232 -140 0
-232 -163 0
-232 -186 0
-232 -209 0
-255 -2 0
-255 -25 0
-255 -48 0
-255 -71 0
-255 -94 0
-255 -117 0
-255 -140 0
-255 -163 0
-255 -186 0
-255 -209 0
-255 -232 0
-278 -2 0
-278 -25 0
-278 -48 0
-278 -71 0
-278 -94 0
-278 -117 0
-278 -140 0
-278 -163 0
-278 -186 0
-278 -209 0
-278 -232 0
-278 -255 0
-26 -3 0
-49 -3 0
-49 -26 0
-72 -3 0
-72 -26 0
-72 -49 0
-95 -3 0
-95 -26 0
-95 -49 0
-95 -72 0
-118 -3 0
-118 -26 0
-118 -49 0
-118 -72 0
-118 -95 0
-141 -3 0
-141 -26 0
-141 -49 0
-141 -72 0
-141 -95 0
-141 -118 0
-164 -3 0
-164 -26 0
-164 -49 0
-164 -72 0
-164 -95 0
-164 -118 0
-164 -141 0
-187 -3 0
-187 -26 0
-187 -49 0
-187 -72 0
-187 -95 0
-187 -118 0
-187 -141 0
-187 -164 0
-210 -3 0
-210 -26 0
-210 -49 0
-210 -72 0
-210 -95 0
-210 -118 0
-210 -141 0
-210 -164 0
-210 -187 0
-233 -3 0
-233 -26 0
-233 -49 0
-233 -72 0
-233 -95 0
-233 -118 0
-233 -141 0
-233 -164 0
-233 -187 0
-233 -210 0
-256 -3 0
-256 -26 0
-256 -49 0
-256 -72 0
-256 -95 0
-256 -118 0
-256 -141 0
-256 -164 0
-256 -187 0
-256 -210 0
-256 -233 0
-279 -3 0
-279 -26 0
-279 -49 0
-279 -72 0
-279 -95 0
-279 -118 0
-279 -141 0
-279 -164 0
-279 -187 0
-279 -210 0
-279 -233 0
-279 -256 0
-27 -4 0
-50 -4 0
-50 -27 0
-73 -4 0
-73 -27 0
-73 -50 0
-96 -4 0
-96 -27 0
-96 -50 0
-96 -73 0
-119 -4 0
-119 -27 0
-119 -50 0
-119 -73 0
-119 -96 0
-142 -4 0
-142 -27 0
-142 -50 0
-142 -73 0
-142 -96 0
-142 -119 0
-165 -4 0
-165 -27 0
-165 -50 0
-165 -73 0
-165 -96 0
-165 -119 0
-165 -142 0
-188 -4 0
-188 -27 0
-188 -50 0
-188 -73 0
-188 -96 0
-188 -119 0
-188 -142 0
-188 -165 0
-211 -4 0
-211 -27 0
-211 -50 0
-211 -73 0
-211 -96 0
-211 -119 0
-211 -142 0
-211 -165 0
-211 -188 0
-234 -4 0
-234 -27 0
-234 -50 0
-234 -73 0
-234 -96 0
-234 -119 0
-234 -142 0
-234 -165 0
-234 -188 0
-234 -211 0
-257 -4 0
-257 -27 0
-257 -50 0
-257 -73 0
-257 -96 0
-257 -119 0
-257 -142 0
-257 -165 0
-257 -188 0
-257 -211 0
-257 -234 0
-280 -4 0
-280 -27 0
-280 -50 0
-280 -73 0
-280 -96 0
-280 -119 0
-280 -142 0
-280 -165 0
-280 -188 0
-280 -211 0
-280 -234 0
-280 -257 0
-28 -5 0
-51 -5 0
-51 -28 0
-74 -5 0
-74 -28 0
-74 -51 0
-97 -5 0
-97 -28 0
-97 -51 0
-97 -74 0
-120 -5 0
-120 -28 0
-120 -51 0
-120 -74 0
-120 -97 0
-143 -5 0
-143 -28 0
-143 -51 0
-143 -74 0
-143 -97 0
-143 -120 0
-166 -5 0
-166 -28 0
-166 -51 0
-166 -74 0
-166 -97 0
-166 -120 0
-166 -143 0
-189 -5 0
-189 -28 0
-189 -51 0
-189 -74 0
-189 -97 0
-189 -120 0
-189 -143 0
-189 -166 0
-212 -5 0
-212 -28 0
-212 -51 0
-212 -74 0
-212 -97 0
-212 -120 0
-212 -143 0
-212 -166 0
-212 -189 0
-235 -5 0
-235 -28 0
-235 -51 0
-235 -74 0
-235 -97 0
-235 -120 0
-235 -143 0
-235 -166 0
-235 -189 0
-235 -212 0
-258 -5 0
-258 -28 0
-258 -51 0
-258 -74 0
-258 -97 0
-258 -120 0
-258 -143 0
-258 -166 0
-258 -189 0
-258 -212 0
-258 -235 0
-281 -5 0
-281 -28 0
-281 -51 0
-281 -74 0
-281 -97 0
-281 -120 0
-281 -143 0
-281 -166 0
-281 -189 0
-281 -212 0
-281 -235 0
-281 -258 0
-29 -6 0
-52 -6 0
-52 -29 0
-75 -6 0
-75 -29 0
-75 -52 0
-98 -6 0
-98 -29 0
-98 -52 0
-98 -75 0
-121 -6 0
-121 -29 0
-121 -52 0
-121 -75 0
-121 -98 0
-144 -6 0
-144 -29 0
-144 -52 0
-144 -75 0
-144 -98 0
-144 -121 0
-167 -6 0
-167 -29 0
-167 -52 0
-167 -75 0
-167 -98 0
-167 -121 0
-167 -144 0
-190 -6 0
-190 -29 0
-190 -52 0
-190 -75 0
-190 -98 0
-190 -121 0
-190 -144 0
-190 -167 0
-213 -6 0
-213 -29 0
-213 -52 0
-213 -75 0
-213 -98 0
-213 -121 0
-213 -144 0
-213 -167 0
-213 -190 0
-236 -6 0
-236 -29 0
-236 -52 0
-236 -75 0
-236 -98 0
-236 -121 0
-236 -144 0
-236 -167 0
-236 -190 0
-236 -213 0
-259 -6 0
-259 -29 0
-259 -52 0
-259 -75 0
-259 -98 0
-259 -121 0
-259 -144 0
-259 -167 0
-259 -190 0
-259 -213 0
-259 -236 0
-282 -6 0
-282 -29 0
-282 -52 0
-282 -75 0
-282 -98 0
-282 -121 0
-282 -144 0
-282 -167 0
-282 -190 0
-282 -213 0
-282 -236 0
-282 -259 0
-30 -7 0
-53 -7 0
-53 -30 0
-76 -7 0
-76 -30 0
-76 -53 0
-99 -7 0
-99 -30 0
-99 -53 0
-99 -76 0
-122 -7 0
-122 -30 0
-122 -53 0
-122 -76 0
-122 -99 0
-145 -7 0
-145 -30 0
-145 -53 0
-145 -76 0
-145 -99 0
-145 -122 0
-168 -7 0
-168 -30 0
-168 -53 0
-168 -76 0
-168 -99 0
-168 -122 0
-168 -145 0
-191 -7 0
-191 -30 0
-191 -53 0
-191 -76 0
-191 -99 0
-191 -122 0
-191 -145 0
-191 -168 0
-214 -7 0
-214 -30 0
-214 -53 0
-214 -76 0
-214 -99 0
-214 -122 0
-214 -145 0
-214 -168 0
-214 -191 0
-237 -7 0
-237 -30 0
-237 -53 0
-237 -76 0
-237 -99 0
-237 -122 0
-237 -145 0
-237 -168 0
-237 -191 0
-237 -214 0
-260 -7 0
-260 -30 0
-260 -53 0
-260 -76 0
-260 -99 0
-260 -122 0
-260 -145 0
-260 -168 0
-260 -191 0
-260 -214 0
-260 -237 0
-283 -7 0
-283 -30 0
-283 -53 0
-283 -76 0
-283 -99 0
-283 -122 0
-283 -145 0
-283 -168 0
-283 -191 0
-283 -214 0
-283 -237 0
-283 -260 0
-31 -8 0
-54 -8 0
-54 -31 0
-77 -8 0
-77 -31 0
-77 -54 0
-100 -8 0
-100 -31 0
-100 -54 0
-100 -77 0
-123 -8 0
-123 -31 0
-123 -54 0
-123 -77 0
-123 -100 0
-146 -8 0
-146 -31 0
-146 -54 0
-146 -77 0
-146 -100 0
-146 -123 0
-169 -8 0
-169 -31 0
-169 -54 0
-169 -77 0
-169 -100 0
-169 -123 0
-169 -146 0
-192 -8 0
-192 -31 0
-192 -54 0
-192 -77 0
-192 -100 0
-192 -123 0
-192 -146 0
-192 -169 0
-215 -8 0
-215 -31 0
-215 -54 0
-215 -77 0
-215 -100 0
-215 -123 0
-215 -146 0
-215 -169 0
-215 -192 0
-238 -8 0
-238 -31 0
-238 -54 0
-238 -77 0
-238 -100 0
-238 -123 0
-238 -146 0
-238 -169 0
-238 -192 0
-238 -215 0
-261 -8 0
-261 -31 0
-261 -54 0
-261 -77 0
-261 -100 0
-261 -123 0
-261 -146 0
-261 -169 0
-261 -192 0
-261 -215 0
-261 -238 0
-284 -8 0
-284 -31 0
-284 -54 0
-284 -77 0
-284 -100 0
-284 -123 0
-284 -146 0
-284 -169 0
-284 -192 0
-284 -215 0
-284 -238 0
-284 -261 0
-32 -9 0
-55 -9 0
-55 -32 0
-78 -9 0
-78 -32 0
-78 -55 0
-101 -9 0
-101 -32 0
-101 -55 0
-101 -78 0
-124 -9 0
-124 -32 0
-124 -55 0
-124 -78 0
-124 -101 0
-147 -9 0
-147 -32 0
-147 -55 0
-147 -78 0
-147 -101 0
-147 -124 0
-170 -9 0
-170 -32 0
-170 -55 0
-170 -78 0
-170 -101 0
-170 -124 0
-170 -147 0
-193 -9 0
-193 -32 0
-193 -55 0
-193 -78 0
-193 -101 0
-193 -124 0
-193 -147 0
-193 -170 0
-216 -9 0
-216 -32 0
-216 -55 0
-216 -78 0
-216 -101 0
-216 -124 0
-216 -147 0
-216 -170 0
-216 -193 0
-239 -9 0
-239 -32 0
-239 -55 0
-239 -78 0
-239 -101 0
-239 -124 0
-239 -147 0
-239 -170 0
-239 -193 0
-239 -216 0
-262 -9 0
-262 -32 0
-262 -55 0
-262 -78 0
-262 -101 0
-262 -124 0
-262 -147 0
-262 -170 0
-262 -193 0
-262 -216 0
-262 -239 0
-285 -9 0
-285 -32 0
-285 -55 0
-285 -78 0
-285 -101 0
-285 -124 0
-285 -147 0
-285 -170 0
-285 -193 0
-285 -216 0
-285 -239 0
-285 -262 0
-33 -10 0
-56 -10 0
-56 -33 0
-79 -10 0
-79 -33 0
-79 -56 0
-102 -10 0
-102 -33 0
-102 -56 0
-102 -79 0
-125 -10 0
-125 -33 0
-125 -56 0
-125 -79 0
-125 -102 0
-148 -10 0
-148 -33 0
-148 -56 0
-148 -79 0
-148 -102 0
-148 -125 0
-171 -10 0
-171 -33 0
-171 -56 0
-171 -79 0
-171 -102 0
-171 -125 0
-171 -148 0
-194 -10 0
-194 -33 0
-194 -56 0
-194 -79 0
-194 -102 0
-194 -125 0
-194 -148 0
-194 -171 0
-217 -10 0
-217 -33 0
-217 -56 0
-217 -79 0
-217 -102 0
-217 -125 0
-217 -148 0
-217 -171 0
-217 -194 0
-240 -10 0
-240 -33 0
-240 -56 0
-240 -79 0
-240 -102 0
-240 -125 0
-240 -148 0
-240 -171 0
-240 -194 0
-240 -217 0
-263 -10 0
-263 -33 0
-263 -56 0
-263 -79 0
-263 -102 0
-263 -125 0
-263 -148 0
-263 -171 0
-263 -194 0
-263 -217 0
-263 -240 0
-286 -10 0
-286 -33 0
-286 -56 0
-286 -79 0
-286 -102 0
-286 -125 0
-286 -148 0
-286 -171 0
-286 -194 0
-286 -217 0
-286 -240 0
-286 -263 0
-34 -11 0
-57 -11 0
-57 -34 0
-80 -11 0
-80 -34 0
-80 -57 0
-103 -11 0
-103 -34 0
-103 -57 0
-103 -80 0
-126 -11 0
-126 -34 0
-126 -57 0
-126 -80 0
-126 -103 0
-149 -11 0
-149 -34 0
-149 -57 0
-149 -80 0
-149 -103 0
-149 -126 0
-172 -11 0
-172 -34 0
-172 -57 0
-172 -80 0
-172 -103 0
-172 -126 0
-172 -149 0
-195 -11 0
-195 -34 0
-195 -57 0
-195 -80 0
-195 -103 0
-195 -126 0
-195 -149 0
-195 -172 0
-218 -11 0
-218 -34 0
-218 -57 0
-218 -80 0
-218 -103 0
-218 -126 0
-218 -149 0
-218 -172 0
-218 -195 0
-241 -11 0
-241 -34 0
-241 -57 0
-241 -80 0
-241 -103 0
-241 -126 0
-241 -149 0
-241 -172 0
-241 -195 0
-241 -218 0
-264 -11 0
-264 -34 0
-264 -57 0
-264 -80 0
-264 -103 0
-264 -126 0
-264 -149 0
-264 -172 0
-264 -195 0
-264 -218 0
-264 -241 0
-287 -11 0
-287 -34 0
-287 -57 0
-287 -80 0
-287 -103 0
-287 -126 0
-287 -149 0
-287 -172 0
-287 -195 0
-287 -218 0
-287 -241 0
-287 -264 0
-35 -12 0
-58 -12 0
-58 -35 0
-81 -12 0
-81 -35 0
-81 -58 0
-104 -12 0
-104 -35 0
-104 -58 0
-104 -81 0
-127 -12 0
-127 -35 0
-127 -58 0
-127 -81 0
-127 -104 0
-150 -12 0
-150 -35 0
-150 -58 0
-150 -81 0
-150 -104 0
-150 -127 0
-173 -12 0
-173 -35 0
-173 -58 0
-173 -81 0
-173 -104 0
-173 -127 0
-173 -150 0
-196 -12 0
-196 -35 0
-196 -58 0
-196 -81 0
-196 -104 0
-196 -127 0
-196 -150 0
-196 -173 0
-219 -12 0
-219 -35 0
-219 -58 0
-219 -81 0
-219 -104 0
-219 -127 0
-219 -150 0
-219 -173 0
-219 -196 0
-242 -12 0
-242 -35 0
-242 -58 0
-242 -81 0
-242 -104 0
-242 -127 0
-242 -150 0
-242 -173 0
-242 -196 0
-242 -219 0
-265 -12 0
-265 -35 0
-265 -58 0
-265 -81 0
-265 -104 0
-265 -127 0
-265 -150 0
-265 -173 0
-265 -196 0
-265 -219 0
-265 -242 0
-288 -12 0
-288 -35 0
-288 -58 0
-288 -81 0
-288 -104 0
-288 -127 0
-288 -150 0
-288 -173 0
-288 -196 0
-288 -219 0
-288 -242 0
-288 -265 0
